NAME: renA6
TYPE: TSP
COMMENT: 6-city problem A
DIMENSION: 6
EDGE_WEIGHT_TYPE : EUC_2D
NODE_COORD_SECTION
1  300 0
2  900 900
3  0 300
4  1200 600
5  600 0
6  300 900
7  900 0
8  0 600
9  1200 300
10 600 900
EOF
